
Log started (V11.0.0) Mon Apr 14 09:47:41 2008

Tried aggregator 1 time.
Reduced MIP has 530 rows, 15001 columns, and 30030 nonzeros.
Presolve time =    0.11 sec.
Clique table members: 500.
MIP emphasis: balance optimality and feasibility.
MIP search method: dynamic search.
Parallel mode: none, using 1 thread.
Root relaxation solution time =    0.45 sec.

        Nodes                                         Cuts/
   Node  Left     Objective  IInf  Best Integer     Best Node    ItCnt     Gap

*     0+    0                        25963.0000       64.9313      872   99.75%
*     0+    0                           77.0000       64.9313      872   15.67%
      0     0       65.0000    53       77.0000      Fract: 7      910   15.58%
*     0+    0                           74.0000       65.0000      910   12.16%
*     0+    0                           71.0000       65.0000      910    8.45%
*     0+    0                           69.0000       65.0000      910    5.80%

Repeating presolve.
Tried aggregator 1 time.
MIP Presolve eliminated 0 rows and 4777 columns.
Reduced MIP has 530 rows, 10224 columns, and 20476 nonzeros.
Tried aggregator 1 time.
Represolve time =    0.44 sec.
Clique table members: 813.
MIP emphasis: balance optimality and feasibility.
MIP search method: dynamic search.
Parallel mode: none, using 1 thread.
Root relaxation solution time =    0.31 sec.

        Nodes                                         Cuts/
   Node  Left     Objective  IInf  Best Integer     Best Node    ItCnt     Gap

      0     0       65.0000    59       69.0000       65.0000      934    5.80%
*     0+    0                           68.0000       65.0000      934    4.41%
      0     2       65.0000    59       68.0000       65.0000      934    4.41%
    100    75       66.0000    39       68.0000       65.0000     5817    4.41%
    200   151       66.0000    52       68.0000       66.0000    11077    2.94%
    300   246       66.0000    58       68.0000       66.0000    17600    2.94%
    400   322       66.0000    58       68.0000       66.0000    24890    2.94%
    500   415       67.0000    61       68.0000       66.0000    28979    2.94%
    600   422       67.0000    51       68.0000       66.0000    38935    2.94%
    700   437       67.0000    46       68.0000       66.0000    47239    2.94%
    800   433    infeasible             68.0000       66.0000    56517    2.94%
    900   445    infeasible             68.0000       66.0000    67054    2.94%
   1000   458       67.0000    43       68.0000       66.0000    77004    2.94%
Elapsed time =  80.78 sec. (tree size =  5.23 MB, solutions = 6)
   1100   477       66.0000    68       68.0000       66.0000    88623    2.94%
   1200   563       66.0000    50       68.0000       66.0000    97069    2.94%
   1300   656    infeasible             68.0000       66.0000   104851    2.94%
   1400   742       67.0000    46       68.0000       66.0000   116189    2.94%
   1500   821       67.0000    92       68.0000       66.0000   127303    2.94%
   1600   916       67.0000    60       68.0000       66.0000   134113    2.94%
   1700  1001       66.0000    65       68.0000       66.0000   143513    2.94%
   1800  1090       66.0000    94       68.0000       66.0000   151026    2.94%
   1900  1180       67.0000    53       68.0000       66.0000   157595    2.94%
   2000  1263       67.0000    45       68.0000       66.0000   166925    2.94%
Elapsed time = 146.05 sec. (tree size = 16.74 MB, solutions = 6)
   2100  1351       66.0000    65       68.0000       66.0000   177099    2.94%
   2200  1443    infeasible             68.0000       66.0000   184900    2.94%
   2300  1533       67.0000    45       68.0000       66.0000   192186    2.94%
   2400  1608       67.0000   106       68.0000       66.0000   201495    2.94%
*  2431+  442                           67.0000       66.0000   204936    1.49%
   2500   504       66.0000    55       67.0000       66.0000   210738    1.49%
   2600   582       66.0000    68       67.0000       66.0000   222962    1.49%
   2700   672       66.0000    64       67.0000       66.0000   233794    1.49%
   2800   758       66.0000    82       67.0000       66.0000   247124    1.49%
   2900   848       66.0000   108       67.0000       66.0000   257364    1.49%
   3000   936       66.0000    64       67.0000       66.0000   265990    1.49%
Elapsed time = 224.91 sec. (tree size = 15.44 MB, solutions = 7)
   3100  1026       66.0000    67       67.0000       66.0000   277567    1.49%
   3200  1116       66.0000    81       67.0000       66.0000   289308    1.49%
   3300  1198       66.0000    63       67.0000       66.0000   298633    1.49%
   3400  1290       66.0000    62       67.0000       66.0000   308169    1.49%
   3500  1370       66.0000    51       67.0000       66.0000   318717    1.49%
   3600  1468       66.0000    74       67.0000       66.0000   329807    1.49%
   3700  1548       66.0000    76       67.0000       66.0000   344066    1.49%
   3800  1628       66.0000    91       67.0000       66.0000   357790    1.49%
   3900  1704       66.0000    61       67.0000       66.0000   370351    1.49%
   4000  1792       66.0000    77       67.0000       66.0000   382165    1.49%
Elapsed time = 311.39 sec. (tree size = 34.02 MB, solutions = 7)
   4100  1868       66.0000    80       67.0000       66.0000   397323    1.49%
   4200  1952       66.0000    60       67.0000       66.0000   411486    1.49%
   4300  2022       66.0000   111       67.0000       66.0000   426682    1.49%
   4400  2106       66.0000    91       67.0000       66.0000   441686    1.49%
   4500  2200    infeasible             67.0000       66.0000   453678    1.49%
   4600  2268       66.0000    72       67.0000       66.0000   474596    1.49%
   4700  2350       66.0000    84       67.0000       66.0000   488823    1.49%
   4800  2436       66.0000    75       67.0000       66.0000   500474    1.49%
   4900  2528       66.0000    72       67.0000       66.0000   508262    1.49%
   5000  2614       66.0000   108       67.0000       66.0000   523560    1.49%
Elapsed time = 442.78 sec. (tree size = 54.92 MB, solutions = 7)
   5100  2698       66.0000   130       67.0000       66.0000   538129    1.49%
   5200  2780       66.0000    89       67.0000       66.0000   556643    1.49%
   5300  2864       66.0000    82       67.0000       66.0000   571110    1.49%
   5400  2942       66.0000    83       67.0000       66.0000   590640    1.49%
   5500  3012       66.0000   100       67.0000       66.0000   611403    1.49%
   5600  3110       66.0000    86       67.0000       66.0000   621412    1.49%
   5700  3192       66.0000   108       67.0000       66.0000   635723    1.49%
   5800  3268    infeasible             67.0000       66.0000   654622    1.49%
   5900  3348       66.0000   107       67.0000       66.0000   672305    1.49%
   6000  3444       66.0000    97       67.0000       66.0000   680608    1.49%
Elapsed time = 611.84 sec. (tree size = 78.98 MB, solutions = 7)
   6100  3536       66.0000    91       67.0000       66.0000   693425    1.49%
   6200  3624       66.0000   113       67.0000       66.0000   706129    1.49%
   6300  3712       66.0000   138       67.0000       66.0000   721632    1.49%
   6400  3798       66.0000   112       67.0000       66.0000   737109    1.49%
   6500  3874       66.0000   106       67.0000       66.0000   760094    1.49%
   6600  3954       66.0000   118       67.0000       66.0000   780942    1.49%
   6700  4048       66.0000   102       67.0000       66.0000   799107    1.49%
   6800  4138       66.0000   112       67.0000       66.0000   814928    1.49%
   6900  4230       66.0000   144       67.0000       66.0000   826570    1.49%
   7000  4316       66.0000   119       67.0000       66.0000   843811    1.49%
Elapsed time = 807.17 sec. (tree size = 107.27 MB, solutions = 7)
   7100  4406       66.0000   103       67.0000       66.0000   857446    1.49%
   7200  4488       66.0000   105       67.0000       66.0000   874803    1.49%
   7300  4570       66.0000    78       67.0000       66.0000   894777    1.49%
*  7301+    1                           66.0000       66.0000   895143    0.00%

Cover cuts applied:  2070
Mixed integer rounding cuts applied:  1
Gomory fractional cuts applied:  7

Solution pool: 8 solutions saved.

MIP - Integer optimal solution:  Objective = 6.6000000000e+001
Solution time =  876.36 sec.  Iterations = 895143  Nodes = 7301


Incumbent solution
Variable Name           Solution Value
Cmax                         66.000000
X_1_1                         1.000000
X_2_24                        1.000000
X_3_15                        1.000000
X_4_18                        1.000000
X_5_19                        1.000000
X_6_14                        1.000000
X_7_9                         1.000000
X_8_12                        1.000000
X_9_28                        1.000000
X_10_20                       1.000000
X_11_17                       1.000000
X_12_22                       1.000000
X_13_8                        1.000000
X_14_17                       1.000000
X_15_23                       1.000000
X_16_20                       1.000000
X_17_27                       1.000000
X_18_28                       1.000000
X_19_24                       1.000000
X_20_24                       1.000000
X_21_7                        1.000000
X_22_21                       1.000000
X_23_12                       1.000000
X_24_12                       1.000000
X_25_13                       1.000000
X_26_1                        1.000000
X_27_29                       1.000000
X_28_17                       1.000000
X_29_11                       1.000000
X_30_7                        1.000000
X_31_10                       1.000000
X_32_13                       1.000000
X_33_21                       1.000000
X_34_18                       1.000000
X_35_25                       1.000000
X_36_16                       1.000000
X_37_8                        1.000000
X_38_29                       1.000000
X_39_19                       1.000000
X_40_6                        1.000000
X_41_23                       1.000000
X_42_18                       1.000000
X_43_2                        1.000000
X_44_3                        1.000000
X_45_2                        1.000000
X_46_11                       1.000000
X_47_20                       1.000000
X_48_2                        1.000000
X_49_6                        1.000000
X_50_5                        1.000000
X_51_10                       1.000000
X_52_15                       1.000000
X_53_10                       1.000000
X_54_25                       1.000000
X_55_23                       1.000000
X_56_29                       1.000000
X_57_11                       1.000000
X_58_27                       1.000000
X_59_21                       1.000000
X_60_19                       1.000000
X_61_12                       1.000000
X_62_12                       1.000000
X_63_24                       1.000000
X_64_21                       1.000000
X_65_6                        1.000000
X_66_16                       1.000000
X_67_27                       1.000000
X_68_24                       1.000000
X_69_3                        1.000000
X_70_30                       1.000000
X_71_2                        1.000000
X_72_16                       1.000000
X_73_2                        1.000000
X_74_6                        1.000000
X_75_10                       1.000000
X_76_3                        1.000000
X_77_5                        1.000000
X_78_1                        1.000000
X_79_24                       1.000000
X_80_6                        1.000000
X_81_1                        1.000000
X_82_6                        1.000000
X_83_1                        1.000000
X_84_8                        1.000000
X_85_17                       1.000000
X_86_12                       1.000000
X_87_4                        1.000000
X_88_21                       1.000000
X_89_28                       1.000000
X_90_14                       1.000000
X_91_14                       1.000000
X_92_2                        1.000000
X_93_24                       1.000000
X_94_25                       1.000000
X_95_12                       1.000000
X_96_3                        1.000000
X_97_7                        1.000000
X_98_3                        1.000000
X_99_14                       1.000000
X_100_10                      1.000000
X_101_30                      1.000000
X_102_17                      1.000000
X_103_14                      1.000000
X_104_22                      1.000000
X_105_30                      1.000000
X_106_3                       1.000000
X_107_8                       1.000000
X_108_13                      1.000000
X_109_6                       1.000000
X_110_3                       1.000000
X_111_1                       1.000000
X_112_21                      1.000000
X_113_12                      1.000000
X_114_4                       1.000000
X_115_8                       1.000000
X_116_7                       1.000000
X_117_29                      1.000000
X_118_28                      1.000000
X_119_9                       1.000000
X_120_4                       1.000000
X_121_29                      1.000000
X_122_25                      1.000000
X_123_25                      1.000000
X_124_1                       1.000000
X_125_29                      1.000000
X_126_16                      1.000000
X_127_22                      1.000000
X_128_13                      1.000000
X_129_12                      1.000000
X_130_20                      1.000000
X_131_18                      1.000000
X_132_16                      1.000000
X_133_18                      1.000000
X_134_18                      1.000000
X_135_18                      1.000000
X_136_19                      1.000000
X_137_14                      1.000000
X_138_18                      1.000000
X_139_26                      1.000000
X_140_20                      1.000000
X_141_7                       1.000000
X_142_17                      1.000000
X_143_4                       1.000000
X_144_3                       1.000000
X_145_5                       1.000000
X_146_3                       1.000000
X_147_23                      1.000000
X_148_23                      1.000000
X_149_21                      1.000000
X_150_6                       1.000000
X_151_9                       1.000000
X_152_17                      1.000000
X_153_20                      1.000000
X_154_23                      1.000000
X_155_9                       1.000000
X_156_20                      1.000000
X_157_13                      1.000000
X_158_5                       1.000000
X_159_16                      1.000000
X_160_17                      1.000000
X_161_1                       1.000000
X_162_22                      1.000000
X_163_18                      1.000000
X_164_3                       1.000000
X_165_11                      1.000000
X_166_11                      1.000000
X_167_25                      1.000000
X_168_11                      1.000000
X_169_20                      1.000000
X_170_9                       1.000000
X_171_7                       1.000000
X_172_28                      1.000000
X_173_14                      1.000000
X_174_10                      1.000000
X_175_7                       1.000000
X_176_25                      1.000000
X_177_4                       1.000000
X_178_29                      1.000000
X_179_10                      1.000000
X_180_3                       1.000000
X_181_4                       1.000000
X_182_13                      1.000000
X_183_5                       1.000000
X_184_16                      1.000000
X_185_2                       1.000000
X_186_16                      1.000000
X_187_12                      1.000000
X_188_22                      1.000000
X_189_16                      1.000000
X_190_12                      1.000000
X_191_7                       1.000000
X_192_8                       1.000000
X_193_20                      1.000000
X_194_19                      1.000000
X_195_17                      1.000000
X_196_18                      1.000000
X_197_28                      1.000000
X_198_24                      1.000000
X_199_27                      1.000000
X_200_16                      1.000000
X_201_2                       1.000000
X_202_26                      1.000000
X_203_1                       1.000000
X_204_20                      1.000000
X_205_26                      1.000000
X_206_29                      1.000000
X_207_4                       1.000000
X_208_2                       1.000000
X_209_20                      1.000000
X_210_11                      1.000000
X_211_20                      1.000000
X_212_21                      1.000000
X_213_26                      1.000000
X_214_13                      1.000000
X_215_13                      1.000000
X_216_10                      1.000000
X_217_30                      1.000000
X_218_9                       1.000000
X_219_7                       1.000000
X_220_8                       1.000000
X_221_10                      1.000000
X_222_1                       1.000000
X_223_23                      1.000000
X_224_24                      1.000000
X_225_14                      1.000000
X_226_19                      1.000000
X_227_25                      1.000000
X_228_22                      1.000000
X_229_17                      1.000000
X_230_18                      1.000000
X_231_29                      1.000000
X_232_22                      1.000000
X_233_26                      1.000000
X_234_27                      1.000000
X_235_2                       1.000000
X_236_4                       1.000000
X_237_5                       1.000000
X_238_8                       1.000000
X_239_12                      1.000000
X_240_22                      1.000000
X_241_28                      1.000000
X_242_21                      1.000000
X_243_23                      1.000000
X_244_15                      1.000000
X_245_9                       1.000000
X_246_1                       1.000000
X_247_30                      1.000000
X_248_29                      1.000000
X_249_4                       1.000000
X_250_22                      1.000000
X_251_17                      1.000000
X_252_4                       1.000000
X_253_13                      1.000000
X_254_18                      1.000000
X_255_5                       1.000000
X_256_18                      1.000000
X_257_24                      1.000000
X_258_25                      1.000000
X_259_30                      1.000000
X_260_2                       1.000000
X_261_15                      1.000000
X_262_19                      1.000000
X_263_2                       1.000000
X_264_14                      1.000000
X_265_19                      1.000000
X_266_30                      1.000000
X_267_23                      1.000000
X_268_1                       1.000000
X_269_28                      1.000000
X_270_1                       1.000000
X_271_30                      1.000000
X_272_28                      1.000000
X_273_27                      1.000000
X_274_23                      1.000000
X_275_23                      1.000000
X_276_30                      1.000000
X_277_18                      1.000000
X_278_26                      1.000000
X_279_25                      1.000000
X_280_11                      1.000000
X_281_27                      1.000000
X_282_19                      1.000000
X_283_3                       1.000000
X_284_18                      1.000000
X_285_15                      1.000000
X_286_20                      1.000000
X_287_23                      1.000000
X_288_26                      1.000000
X_289_14                      1.000000
X_290_27                      1.000000
X_291_10                      1.000000
X_292_5                       1.000000
X_293_23                      1.000000
X_294_10                      1.000000
X_295_16                      1.000000
X_296_16                      1.000000
X_297_14                      1.000000
X_298_16                      1.000000
X_299_22                      1.000000
X_300_15                      1.000000
X_301_27                      1.000000
X_302_3                       1.000000
X_303_23                      1.000000
X_304_25                      1.000000
X_305_17                      1.000000
X_306_29                      1.000000
X_307_13                      1.000000
X_308_7                       1.000000
X_309_12                      1.000000
X_310_26                      1.000000
X_311_21                      1.000000
X_312_25                      1.000000
X_313_20                      1.000000
X_314_29                      1.000000
X_315_10                      1.000000
X_316_14                      1.000000
X_317_29                      1.000000
X_318_19                      1.000000
X_319_24                      1.000000
X_320_3                       1.000000
X_321_30                      1.000000
X_322_12                      1.000000
X_323_8                       1.000000
X_324_9                       1.000000
X_325_14                      1.000000
X_326_17                      1.000000
X_327_22                      1.000000
X_328_11                      1.000000
X_329_11                      1.000000
X_330_2                       1.000000
X_331_3                       1.000000
X_332_8                       1.000000
X_333_14                      1.000000
X_334_28                      1.000000
X_335_2                       1.000000
X_336_10                      1.000000
X_337_2                       1.000000
X_338_19                      1.000000
X_339_13                      1.000000
X_340_11                      1.000000
X_341_10                      1.000000
X_342_26                      1.000000
X_343_17                      1.000000
X_344_22                      1.000000
X_345_13                      1.000000
X_346_30                      1.000000
X_347_25                      1.000000
X_348_5                       1.000000
X_349_22                      1.000000
X_350_3                       1.000000
X_351_9                       1.000000
X_352_1                       1.000000
X_353_11                      1.000000
X_354_12                      1.000000
X_355_21                      1.000000
X_356_26                      1.000000
X_357_27                      1.000000
X_358_25                      1.000000
X_359_11                      1.000000
X_360_13                      1.000000
X_361_13                      1.000000
X_362_19                      1.000000
X_363_30                      1.000000
X_364_13                      1.000000
X_365_15                      1.000000
X_366_26                      1.000000
X_367_28                      1.000000
X_368_17                      1.000000
X_369_28                      1.000000
X_370_15                      1.000000
X_371_30                      1.000000
X_372_15                      1.000000
X_373_12                      1.000000
X_374_30                      1.000000
X_375_18                      1.000000
X_376_10                      1.000000
X_377_8                       1.000000
X_378_28                      1.000000
X_379_22                      1.000000
X_380_2                       1.000000
X_381_9                       1.000000
X_382_12                      1.000000
X_383_18                      1.000000
X_384_5                       1.000000
X_385_5                       1.000000
X_386_29                      1.000000
X_387_22                      1.000000
X_388_27                      1.000000
X_389_26                      1.000000
X_390_21                      1.000000
X_391_8                       1.000000
X_392_1                       1.000000
X_393_10                      1.000000
X_394_28                      1.000000
X_395_12                      1.000000
X_396_4                       1.000000
X_397_11                      1.000000
X_398_11                      1.000000
X_399_12                      1.000000
X_400_2                       1.000000
X_401_18                      1.000000
X_402_15                      1.000000
X_403_9                       1.000000
X_404_5                       1.000000
X_405_26                      1.000000
X_406_2                       1.000000
X_407_13                      1.000000
X_408_6                       1.000000
X_409_28                      1.000000
X_410_16                      1.000000
X_411_9                       1.000000
X_412_4                       1.000000
X_413_17                      1.000000
X_414_4                       1.000000
X_415_30                      1.000000
X_416_23                      1.000000
X_417_13                      1.000000
X_418_7                       1.000000
X_419_30                      1.000000
X_420_4                       1.000000
X_421_7                       1.000000
X_422_3                       1.000000
X_423_27                      1.000000
X_424_27                      1.000000
X_425_28                      1.000000
X_426_12                      1.000000
X_427_1                       1.000000
X_428_15                      1.000000
X_429_7                       1.000000
X_430_23                      1.000000
X_431_9                       1.000000
X_432_5                       1.000000
X_433_7                       1.000000
X_434_15                      1.000000
X_435_17                      1.000000
X_436_26                      1.000000
X_437_19                      1.000000
X_438_21                      1.000000
X_439_24                      1.000000
X_440_9                       1.000000
X_441_7                       1.000000
X_442_17                      1.000000
X_443_13                      1.000000
X_444_24                      1.000000
X_445_15                      1.000000
X_446_25                      1.000000
X_447_7                       1.000000
X_448_19                      1.000000
X_449_16                      1.000000
X_450_8                       1.000000
X_451_23                      1.000000
X_452_23                      1.000000
X_453_1                       1.000000
X_454_23                      1.000000
X_455_4                       1.000000
X_456_22                      1.000000
X_457_27                      1.000000
X_458_20                      1.000000
X_459_26                      1.000000
X_460_3                       1.000000
X_461_9                       1.000000
X_462_8                       1.000000
X_463_5                       1.000000
X_464_13                      1.000000
X_465_12                      1.000000
X_466_12                      1.000000
X_467_15                      1.000000
X_468_25                      1.000000
X_469_8                       1.000000
X_470_20                      1.000000
X_471_9                       1.000000
X_472_1                       1.000000
X_473_16                      1.000000
X_474_9                       1.000000
X_475_1                       1.000000
X_476_1                       1.000000
X_477_6                       1.000000
X_478_14                      1.000000
X_479_20                      1.000000
X_480_15                      1.000000
X_481_7                       1.000000
X_482_16                      1.000000
X_483_5                       1.000000
X_484_11                      1.000000
X_485_26                      1.000000
X_486_25                      1.000000
X_487_18                      1.000000
X_488_30                      1.000000
X_489_29                      1.000000
X_490_4                       1.000000
X_491_14                      1.000000
X_492_20                      1.000000
X_493_22                      1.000000
X_494_15                      1.000000
X_495_15                      1.000000
X_496_24                      1.000000
X_497_6                       1.000000
X_498_7                       1.000000
X_499_2                       1.000000
X_500_18                      1.000000
All other variables in the range 1-15001 are 0.
